
        $ From http://www.csplib.org/Problems/prob009/data/helmut.pdf
        $ Problem number 57
        $ Sequence length : 25
        language ESSENCE' 1.0
        letting sizemaster be 253
        letting sizes be sequence(2,4,5,6,9,10,12,14,20,24,27,35,36,37,38,42,43,45,50,54,63,66,70,120,133)
        